DATASET = "thpack6";
INSTANCE = "092";

WIDTH = 233;
HEIGHT = 220;
LENGTH = 587;

NO_OF_SHAPES = 15;
size = [|
  96,82,63 |
  74,63,59 |
  86,60,43 |
  90,67,57 |
  97,91,80 |
  116,61,28 |
  86,41,35 |
  67,44,26 |
  115,79,31 |
  62,59,46 |
  49,41,39 |
  55,48,33 |
  113,89,63 |
  49,36,33 |
  71,63,54 |
|];

verticality = [|
  1,1,1 |
  1,1,1 |
  0,1,1 |
  1,1,1 |
  1,1,1 |
  0,0,1 |
  0,1,1 |
  0,1,1 |
  0,0,1 |
  1,1,1 |
  1,1,1 |
  1,1,1 |
  1,1,1 |
  1,1,1 |
  1,1,1 |
|];

box_count = [
  7,
  7,
  10,
  8,
  6,
  8,
  12,
  5,
  9,
  9,
  4,
  8,
  8,
  7,
  6,
];
